%
% data file for Black Oxide 1
%
% accompanies CPAIOR 2020 abstract "A New Constraint Programming Model and Solving for the Cyclic Hoist Scheduling Problem", and Constraints journal article of the same title
%
% Copyright (c) 2020 M. Wallace and N. Yorke-Smith
% contact: n.yorke-smith@tudelft.nl
% released under CC BY-NC-SA license (https://creativecommons.org/licenses/by-nc-sa/4.0/)
%

Ninner = 12;                   % tanks
J = 9;                         % jobs (used if  constraint sum(B) <=J;  is uncommentd)

tmin = [2400, 1800, 600, 600, 600, 600, 1200, 600, 1200, 600, 900, 2400];
tmax = [INF,2400,900,2400,900,1200,1800,900,1450,900,1200,4200];

e = array2d(1..Tinner,0..Ninner,
   [   
     0, 0,   143, 133, 125, 111, 100, 90, 80, 64, 52, 41,  30,
     0, 143, 0,   10,  18,  32,  43,  53, 64, 79, 91, 102, 12,
     0, 133, 10,  0,   08,  22,  33,  43, 53, 69, 81, 92,  11,
     0, 125, 18,  08,  0,   14,  25,  35, 45, 61, 73, 84,  10,
     0, 111, 32,  22,  14,  0,   11,  21, 31, 47, 59, 70,  88,
     0, 100, 43,  33,  25,  11,  0,   10, 20, 36, 48, 59,  77,
     0, 90,  53,  43,  35,  21,  10,  0,  10, 26, 38, 49,  67,
     0, 80,  64,  53,  45,  31,  20,  11, 0,  15, 28, 39,  57,
     0, 64,  79,  69,  61,  47,  36,  26, 15, 0,  12, 23,  41,
     0, 52,  91,  81,  73,  59,  48,  38, 28, 12, 0,  11,  29,
     0, 41,  102, 92,  84,  70,  59,  49, 39, 23, 11, 0,   18,
     0, 30,  120, 110, 102, 88,  77,  67, 57, 41, 29, 18,  0,
     0, 0,   0,   0,   0,   0,   0,   0,  0,  0,  0,  0,   0 ] 
   );

f = array1d(0..Ninner,
    [0, 259, 186, 124, 130, 187, 126, 186, 131, 188, 127, 206, 146]);
   